32	0

0	1	2
5	1	3
10	1	4
5	1	5
5	1	6
10	1	7
7	1	8
2	1	9
10	1	10
8	1	11
1	1	12
1	1	13
3	1	14
9	1	15
3	1	16
7	1	17
9	1	18
6	1	19
6	1	20
7	1	21
6	1	22
5	1	23
5	1	24
3	1	25
4	1	26
3	1	27
2	1	28
2	1	29
2	1	30
2	1	31
2	1	32
0	0
